10J3M/DAT/10J3MUTL-19.dat
10 3
3.7443 3.7443
13.3644 13.3644
9.0595 9.0595
6.2044 6.2044
4.4738 4.4738
34.8302 34.8302
19.1701 19.1701
1.3082 1.3082
16.3767 16.3767
15.1235 15.1235
30.9138