10J3M/SOL/10J3MUTL-19.sol
solution status: optimal solution found
objective value:                              30.9138
x#1#1                                               1 	(obj:0)
x#2#1                               0.458202388434947 	(obj:0)
x#2#2                               0.541797611565053 	(obj:0)
x#3#1                                               1 	(obj:0)
x#4#1                                               1 	(obj:0)
x#5#1                                               1 	(obj:0)
x#6#3                               0.112445521415323 	(obj:0)
x#7#3                                               1 	(obj:0)
x#8#1                                               1 	(obj:0)
x#9#2                               0.522052672394316 	(obj:0)
x#9#3                               0.477947327605684 	(obj:0)
x#10#2                                              1 	(obj:0)
z                                             30.9138 	(obj:1)
